p cnf 48 143
a 16 19 0
e 1 2 3 4 5 6 7 8 9 10 11 12 13 14 15 17 18 20 21 22 23 24 25 26 27 28 29 30 31 32 33 34 35 36 37 38 39 40 41 42 43 44 45 46 47 48 0
4 -2 0
4 3 0
2 -3 -4 0
5 -1 0
5 4 0
1 -4 -5 0
-7 -6 0
-7 -3 0
6 3 7 0
-7 6 -8 0
7 -6 -8 0
-7 -6 8 0
7 6 8 0
-2 8 -9 0
2 -8 -9 0
-2 -8 9 0
2 8 9 0
10 9 0
10 9 0
-9 -10 0
10 9 -11 0
-10 -9 -11 0
10 -9 11 0
-10 9 11 0
8 -6 -12 0
-8 6 -12 0
8 6 12 0
-8 -6 12 0
-13 11 0
-13 12 0
-11 -12 13 0
14 -5 0
14 13 0
5 -13 -14 0
15 4 0
15 7 0
-4 -7 -15 0
-17 7 0
-17 -16 0
-7 16 17 0
-15 17 -18 0
15 -17 -18 0
-15 -17 18 0
15 17 18 0
20 -19 0
20 -1 0
19 1 -20 0
21 19 0
21 -20 0
-19 20 -21 0
-18 -21 -22 0
18 21 -22 0
-18 21 22 0
18 -21 22 0
19 -23 -24 0
-19 23 -24 0
19 23 24 0
-19 -23 24 0
-25 22 0
-25 -24 0
-22 24 25 0
-26 -2 0
-26 19 0
2 -19 26 0
-27 -20 0
-27 26 0
20 -26 27 0
-25 -27 -28 0
25 27 -28 0
-25 27 28 0
25 -27 28 0
-29 -14 0
-29 28 0
14 -28 29 0
20 6 -30 0
-20 -6 -30 0
20 -6 30 0
-20 6 30 0
32 -7 0
32 31 0
7 -31 -32 0
33 23 0
33 -9 0
-23 9 -33 0
-34 33 0
-34 -26 0
-33 26 34 0
-32 -34 -35 0
32 34 -35 0
-32 34 35 0
32 -34 35 0
-30 35 -36 0
30 -35 -36 0
-30 -35 36 0
30 35 36 0
-38 37 0
-38 -8 0
-37 8 38 0
39 31 0
39 -32 0
-31 32 -39 0
39 -40 -41 0
-39 40 -41 0
39 40 41 0
-39 -40 41 0
38 41 -42 0
-38 -41 -42 0
38 -41 42 0
-38 41 42 0
-43 -36 0
-43 42 0
36 -42 43 0
44 -37 0
44 9 0
37 -9 -44 0
-45 -40 0
-45 -2 0
40 2 45 0
46 -44 0
46 45 0
44 -45 -46 0
43 46 -47 0
-43 -46 -47 0
43 -46 47 0
-43 46 47 0
29 47 -48 0
-29 -47 -48 0
29 -47 48 0
-29 47 48 0
-29 26 -10 -21 24 45 6 0
-25 38 -46 31 47 -2 -28 0
35 -11 45 4 12 0
39 34 -19 0
-42 36 -1 45 38 0
40 13 -28 -12 21 0
-44 -38 -5 40 0
-8 21 44 0
-37 3 21 4 39 13 0
46 -19 27 -13 -43 36 38 -24 0
-20 45 -14 15 -4 0
36 46 -23 26 -41 -31 0
41 -30 17 47 10 8 -40 0
48 0
